p tw 90 178
0 1
0 2
0 48
0 49
1 2
1 36
1 82
2 37
2 85
3 4
3 5
3 19
3 50
4 5
4 83
4 88
5 14
5 15
6 7
6 8
6 80
6 82
7 8
7 36
7 37
8 62
8 79
9 10
9 11
9 17
9 76
10 11
10 12
10 13
11 18
11 84
12 13
12 54
12 66
13 56
13 76
14 15
14 50
14 67
15 75
15 88
16 17
16 18
16 64
16 65
17 18
17 76
18 84
19 20
19 21
19 50
20 21
20 67
21 67
22 23
22 24
22 40
22 71
23 24
23 49
23 85
24 38
24 48
25 26
25 27
25 29
25 63
26 27
26 31
26 32
27 41
27 62
28 29
28 30
28 45
28 89
29 30
29 63
30 47
30 87
31 32
31 63
31 87
32 41
32 42
33 34
33 35
33 68
33 86
34 35
34 70
34 77
35 43
35 44
36 37
36 82
37 85
38 39
38 40
38 48
39 40
39 77
39 78
40 71
41 42
41 62
42 79
42 80
43 44
43 52
43 86
44 51
44 81
45 46
45 47
45 89
46 47
46 60
46 61
47 87
48 49
49 85
50 67
51 52
51 53
51 81
52 53
52 86
53 74
53 75
54 55
54 56
54 66
55 56
55 59
55 73
56 76
57 58
57 59
57 72
58 59
58 72
59 73
60 61
60 65
60 84
61 64
61 89
62 79
63 87
64 65
64 89
65 84
66 72
66 73
68 69
68 70
68 86
69 70
69 71
69 78
70 77
71 78
72 73
74 75
74 81
74 83
75 88
77 78
79 80
80 82
81 83
83 88
